0 78 88 64 84 96 84 91 70 52 54 87 84 53 78 60 75 79 87 55 66 98 80 59 57 54 56 91 92 89 91 78 60 83 79 91 75 87 74 78 56 72 87 88 83 90 65 83 52 94 84 93 84 58 63 92 61 99 97 71 62 70 57 75 67 57 68 60 51 98 87 86 50 71 56 75 73 70 